52834
31 25 299
25 15 1148
15 36 679
36 46 402
46 39 214
39 16 451
16 10 734
10 22 117
22 29 544
29 21 516
21 23 176
23 17 619
17 48 415
48 49 761
49 19 934
19 41 1369
41 32 362
32 44 676
44 8 383
8 38 368
38 50 1180
50 20 763
20 24 740
24 35 296
35 5 323
5 37 467
37 7 517
7 40 1176
40 51 1042
51 13 644
13 43 790
43 3 1096
3 6 385
6 28 404
28 55 487
55 26 397
26 53 1237
53 34 396
34 54 401
54 47 491
47 30 944
30 4 380
4 18 606
18 12 768
12 9 723
9 14 471
14 2 433
2 52 598
52 45 722
45 11 436
11 42 1343
42 33 4807
33 1 7621
1 27 4123
27 31 4460
